Route #1: 82 94 64 105 69 17 2 83 77 54
Route #2: 74 21 85 13 40 31 63 57
Route #3: 96 45 100 51 76 15 44 5
Route #4: 71 49 99 11 34 72 29
Route #5: 53 103 101 93 97 43 87 60
Route #6: 14 58 88 91 36 8 48 67
Route #7: 1 104 12 9 84 75 7
Route #8: 62 26 90 24 102 92 52
Route #9: 28 66 46 79 37 27 19 78
Route #10: 22 33
Route #11: 86 18 41 10 16 20 56
Route #12: 68 95 59 38 30 42 32 73
Route #13: 47 80 65 4 98 23 55 3 89 35
Route #14: 61 70 6 81 50 39 25
Cost 26370
